$molecule
 0  1
 S           1.82267924       -1.19997629        0.28714109
 C           3.20006180       -0.17260711        0.06528466
 C           2.82980603        1.10216298       -0.25610036
 C           1.41909100        1.26345446       -0.34254814
 C           0.71738150        0.10901545       -0.08456145
 H           0.93627498        2.19419272       -0.61095402
 C          -0.71741859       -0.10899254       -0.08455524
 S          -1.41502935       -1.48312012        0.75115864
 C          -1.70772481        0.63591690       -0.68128481
 C          -3.02001360       -1.01256929        0.29894414
 C          -3.01565193        0.12072786       -0.46331244
 H          -3.91556241        0.58103747       -0.84930472
 H           4.19429620       -0.57452886        0.18632814
 H           3.53860725        1.89960515       -0.43610218
 H          -3.86362561       -1.60194178        0.62398796
 H          -1.50382809        1.54083678       -1.23893424
$end


$rem
         jobtype = opt
        exchange = b3lyp
           basis = 6-31++g**
  max_scf_cycles = 75
      mem_static = 100
       mem_total = 1500
$end


$opt
CONSTRAINT
tors 4 5 7 9 20.0
ENDCONSTRAINT
$end

