$molecule
 0  1
 S           1.82267924       -1.19997629        0.28714109
 C           3.20006180       -0.17260711        0.06528466
 C           2.82980603        1.10216298       -0.25610036
 C           1.41909100        1.26345446       -0.34254814
 C           0.71738150        0.10901545       -0.08456145
 H           0.93627498        2.19419272       -0.61095402
 C          -0.71741859       -0.10899254       -0.08455524
 S          -1.69429083        0.35482976        1.29526162
 C          -1.50956199       -0.66828475       -1.05994425
 C          -3.14469935       -0.19195484        0.52116074
 C          -2.88857125       -0.71564936       -0.71397448
 H          -3.65810744       -1.11339395       -1.36230090
 H           4.19429620       -0.57452886        0.18632814
 H           3.53860725        1.89960515       -0.43610218
 H          -4.09299576       -0.09235126        1.02663844
 H          -1.11591594       -1.01219422       -2.00767619
$end


$rem
         jobtype = opt
        exchange = b3lyp
           basis = 6-31++g**
  max_scf_cycles = 75
      mem_static = 100
       mem_total = 1500
$end


$opt
CONSTRAINT
tors 4 5 7 9 100.0
ENDCONSTRAINT
$end

