$molecule
 0  1
 S           1.82267924       -1.19997629        0.28714109
 C           3.20006180       -0.17260711        0.06528466
 C           2.82980603        1.10216298       -0.25610036
 C           1.41909100        1.26345446       -0.34254814
 C           0.71738150        0.10901545       -0.08456145
 H           0.93627498        2.19419272       -0.61095402
 C          -0.71741859       -0.10899254       -0.08455524
 S          -1.39609186       -1.60776208        0.52075255
 C          -1.72126984        0.72506696       -0.51850233
 C          -3.01125995       -1.07018357        0.19805783
 C          -3.02422551        0.17715712       -0.35817024
 H          -3.93285723        0.69486791       -0.63579907
 H           4.19429620       -0.57452886        0.18632814
 H           3.53860725        1.89960515       -0.43610218
 H          -3.84743414       -1.70850980        0.43898725
 H          -1.52994700        1.71274521       -0.91764392
$end


$rem
         jobtype = opt
        exchange = b3lyp
           basis = 6-31++g**
  max_scf_cycles = 75
      mem_static = 100
       mem_total = 1500
$end


$opt
CONSTRAINT
tors 4 5 7 9 10.0
ENDCONSTRAINT
$end

