$molecule
 0  1
 S           1.82267924       -1.19997629        0.28714109
 C           3.20006180       -0.17260711        0.06528466
 C           2.82980603        1.10216298       -0.25610036
 C           1.41909100        1.26345446       -0.34254814
 C           0.71738150        0.10901545       -0.08456145
 H           0.93627498        2.19419272       -0.61095402
 C          -0.71741859       -0.10899254       -0.08455524
 S          -1.82924214        1.24295763       -0.18142721
 C          -1.41476359       -1.29216199       -0.01037512
 C          -3.20227062        0.18692634       -0.14294107
 C          -2.82676379       -1.12241048       -0.04269998
 H          -3.53222051       -1.94186877       -0.00354930
 H           4.19429620       -0.57452886        0.18632814
 H           3.53860725        1.89960515       -0.43610218
 H          -4.19810857        0.59940439       -0.19645081
 H          -0.92678343       -2.25689449        0.04054957
$end


$rem
         jobtype = opt
        exchange = b3lyp
           basis = 6-31++g**
  max_scf_cycles = 75
      mem_static = 100
       mem_total = 1500
$end


$opt
CONSTRAINT
tors 4 5 7 9 170.0
ENDCONSTRAINT
$end

