$molecule
 0  1
 S           1.82267924       -1.19997629        0.28714109
 C           3.20006180       -0.17260711        0.06528466
 C           2.82980603        1.10216298       -0.25610036
 C           1.41909100        1.26345446       -0.34254814
 C           0.71738150        0.10901545       -0.08456145
 H           0.93627498        2.19419272       -0.61095402
 C          -0.71741859       -0.10899254       -0.08455524
 S          -1.40048314       -1.57889762       -0.75246761
 C          -1.71886300        0.70925229        0.38370446
 C          -3.01124421       -1.07030326       -0.36688881
 C          -3.02193504        0.16209914        0.22174231
 H          -3.92772319        0.66111216        0.53993673
 H           4.19429620       -0.57452886        0.18632814
 H           3.53860725        1.89960515       -0.43610218
 H          -3.84681981       -1.71258256       -0.59923631
 H          -1.52261201        1.66452110        0.85314435
$end


$rem
         jobtype = opt
        exchange = b3lyp
           basis = 6-31++g**
  max_scf_cycles = 75
      mem_static = 100
       mem_total = 1500
$end


$opt
CONSTRAINT
tors 4 5 7 9 -40.0
ENDCONSTRAINT
$end

