$molecule
 0  1
 S           1.82267924       -1.19997629        0.28714109
 C           3.20006180       -0.17260711        0.06528466
 C           2.82980603        1.10216298       -0.25610036
 C           1.41909100        1.26345446       -0.34254814
 C           0.71738150        0.10901545       -0.08456145
 H           0.93627498        2.19419272       -0.61095402
 C          -0.71741859       -0.10899254       -0.08455524
 S          -1.47783433       -1.06983437       -1.33829203
 C          -1.66438242        0.35070511        0.80066804
 C          -3.04464461       -0.85048905       -0.63197507
 C          -2.98656773       -0.07066005        0.48780633
 H          -3.85578822        0.18769394        1.07807983
 H           4.19429620       -0.57452886        0.18632814
 H           3.53860725        1.89960515       -0.43610218
 H          -3.90792635       -1.31042928       -1.08792931
 H          -1.41445644        0.95272803        1.66468897
$end


$rem
         jobtype = opt
        exchange = b3lyp
           basis = 6-31++g**
  max_scf_cycles = 75
      mem_static = 100
       mem_total = 1500
$end


$opt
CONSTRAINT
tors 4 5 7 9 -70.0
ENDCONSTRAINT
$end

