$molecule
 0  1
 S           1.82267924       -1.19997629        0.28714109
 C           3.20006180       -0.17260711        0.06528466
 C           2.82980603        1.10216298       -0.25610036
 C           1.41909100        1.26345446       -0.34254814
 C           0.71738150        0.10901545       -0.08456145
 H           0.93627498        2.19419272       -0.61095402
 C          -0.71741859       -0.10899254       -0.08455524
 S          -1.73741424        0.63856867       -1.29866650
 C          -1.48044346       -0.85987328        0.77895727
 C          -3.15982414       -0.09244534       -0.63213887
 C          -2.86833709       -0.84878500        0.46713461
 H          -3.61608314       -1.38990488        1.03173975
 H           4.19429620       -0.57452886        0.18632814
 H           3.53860725        1.89960515       -0.43610218
 H          -4.11959609        0.08265599       -1.09351938
 H          -1.05343404       -1.42331042        1.59848657
$end


$rem
         jobtype = opt
        exchange = b3lyp
           basis = 6-31++g**
  max_scf_cycles = 75
      mem_static = 100
       mem_total = 1500
$end


$opt
CONSTRAINT
tors 4 5 7 9 -140.0
ENDCONSTRAINT
$end

