$molecule
 0  1
 S           1.82267924       -1.19997629        0.28714109
 C           3.20006180       -0.17260711        0.06528466
 C           2.82980603        1.10216298       -0.25610036
 C           1.41909100        1.26345446       -0.34254814
 C           0.71738150        0.10901545       -0.08456145
 H           0.93627498        2.19419272       -0.61095402
 C          -0.71741859       -0.10899254       -0.08455524
 S          -1.78574788        0.95673227        0.80774975
 C          -1.44503275       -1.09296821       -0.71229100
 C          -3.18450701        0.07002933        0.29871021
 C          -2.84680108       -0.99054972       -0.49283471
 H          -3.57322808       -1.67200714       -0.91548521
 H           4.19429620       -0.57452886        0.18632814
 H           3.53860725        1.89960515       -0.43610218
 H          -4.16592133        0.38759017        0.61600453
 H          -0.98823467       -1.85249779       -1.33348106
$end


$rem
         jobtype = opt
        exchange = b3lyp
           basis = 6-31++g**
  max_scf_cycles = 75
      mem_static = 100
       mem_total = 1500
$end


$opt
CONSTRAINT
tors 4 5 7 9 130.0
ENDCONSTRAINT
$end

