$molecule
 0  1
 S           1.82267924       -1.19997629        0.28714109
 C           3.20006180       -0.17260711        0.06528466
 C           2.82980603        1.10216298       -0.25610036
 C           1.41909100        1.26345446       -0.34254814
 C           0.71738150        0.10901545       -0.08456145
 H           0.93627498        2.19419272       -0.61095402
 C          -0.71741859       -0.10899254       -0.08455524
 S          -1.62826584       -0.07978980       -1.58215650
 C          -1.55793391       -0.34987115        0.97713877
 C          -3.11098192       -0.41389936       -0.75040275
 C          -2.91799000       -0.52199515        0.59736800
 H          -3.71664854       -0.72803510        1.29765788
 H           4.19429620       -0.57452886        0.18632814
 H           3.53860725        1.89960515       -0.43610218
 H          -4.02971430       -0.50889909       -1.30861464
 H          -1.20497993       -0.42591337        1.99746607
$end


$rem
         jobtype = opt
        exchange = b3lyp
           basis = 6-31++g**
  max_scf_cycles = 75
      mem_static = 100
       mem_total = 1500
$end


$opt
CONSTRAINT
tors 4 5 7 9 -110.0
ENDCONSTRAINT
$end

