$molecule
 0  1
 S           1.82267924       -1.19997629        0.28714109
 C           3.20006180       -0.17260711        0.06528466
 C           2.82980603        1.10216298       -0.25610036
 C           1.41909100        1.26345446       -0.34254814
 C           0.71738150        0.10901545       -0.08456145
 H           0.93627498        2.19419272       -0.61095402
 C          -0.71741859       -0.10899254       -0.08455524
 S          -1.70370794        0.41672980       -1.43516783
 C          -1.50440050       -0.70219941        0.87484444
 C          -3.14466561       -0.19221151       -0.69037124
 C          -2.88365933       -0.74794129        0.52965200
 H          -3.64709744       -1.18578339        1.15907267
 H           4.19429620       -0.57452886        0.18632814
 H           3.53860725        1.89960515       -0.43610218
 H          -4.09167832       -0.10108532       -1.19983917
 H          -1.10018600       -1.11561114        1.78979151
$end


$rem
         jobtype = opt
        exchange = b3lyp
           basis = 6-31++g**
  max_scf_cycles = 75
      mem_static = 100
       mem_total = 1500
$end


$opt
CONSTRAINT
tors 4 5 7 9 -130.0
ENDCONSTRAINT
$end

