$molecule
 0  1
 S           1.82267924       -1.19997629        0.28714109
 C           3.20006180       -0.17260711        0.06528466
 C           2.82980603        1.10216298       -0.25610036
 C           1.41909100        1.26345446       -0.34254814
 C           0.71738150        0.10901545       -0.08456145
 H           0.93627498        2.19419272       -0.61095402
 C          -0.71741859       -0.10899254       -0.08455524
 S          -1.43968943       -1.32081617        0.95617210
 C          -1.69013927        0.52017511       -0.82593585
 C          -3.03126596       -0.93851038        0.38817833
 C          -3.00446590        0.04710533       -0.55694600
 H          -3.89296089        0.43228221       -1.03957345
 H           4.19429620       -0.57452886        0.18632814
 H           3.53860725        1.89960515       -0.43610218
 H          -3.88439697       -1.46523228        0.78746037
 H          -1.46972492        1.31638166       -1.52514927
$end


$rem
         jobtype = opt
        exchange = b3lyp
           basis = 6-31++g**
  max_scf_cycles = 75
      mem_static = 100
       mem_total = 1500
$end


$opt
CONSTRAINT
tors 4 5 7 9 30.0
ENDCONSTRAINT
$end

