$molecule
 0  1
 S           1.82267924       -1.19997629        0.28714109
 C           3.20006180       -0.17260711        0.06528466
 C           2.82980603        1.10216298       -0.25610036
 C           1.41909100        1.26345446       -0.34254814
 C           0.71738150        0.10901545       -0.08456145
 H           0.93627498        2.19419272       -0.61095402
 C          -0.71741859       -0.10899254       -0.08455524
 S          -1.61791475       -0.14782904        1.41907485
 C          -1.56360731       -0.31259286       -1.14954079
 C          -3.11101902       -0.41361724        0.58128805
 C          -2.92338908       -0.48650053       -0.76960040
 H          -3.72875050       -0.64846613       -1.47378359
 H           4.19429620       -0.57452886        0.18632814
 H           3.53860725        1.89960515       -0.43610218
 H          -4.03116239       -0.49929880        1.13868331
 H          -1.22226995       -0.31223964       -2.17663156
$end


$rem
         jobtype = opt
        exchange = b3lyp
           basis = 6-31++g**
  max_scf_cycles = 75
      mem_static = 100
       mem_total = 1500
$end


$opt
CONSTRAINT
tors 4 5 7 9 80.0
ENDCONSTRAINT
$end

