$molecule
 0  1
 S           1.82267924       -1.19997629        0.28714109
 C           3.20006180       -0.17260711        0.06528466
 C           2.82980603        1.10216298       -0.25610036
 C           1.41909100        1.26345446       -0.34254814
 C           0.71738150        0.10901545       -0.08456145
 H           0.93627498        2.19419272       -0.61095402
 C          -0.71741859       -0.10899254       -0.08455524
 S          -1.53978418       -0.66204002        1.36152857
 C          -1.61899606        0.05194436       -1.11068391
 C          -3.07628097       -0.64224320        0.56110607
 C          -2.95896475       -0.25236171       -0.74259861
 H          -3.80086034       -0.17388013       -1.41770326
 H           4.19429620       -0.57452886        0.18632814
 H           3.53860725        1.89960515       -0.43610218
 H          -3.96730200       -0.91959125        1.10318929
 H          -1.33088958        0.40263310       -2.09325137
$end


$rem
         jobtype = opt
        exchange = b3lyp
           basis = 6-31++g**
  max_scf_cycles = 75
      mem_static = 100
       mem_total = 1500
$end


$opt
CONSTRAINT
tors 4 5 7 9 60.0
ENDCONSTRAINT
$end

