$molecule
 0  1
 S           1.82267924       -1.19997629        0.28714109
 C           3.20006180       -0.17260711        0.06528466
 C           2.82980603        1.10216298       -0.25610036
 C           1.41909100        1.26345446       -0.34254814
 C           0.71738150        0.10901545       -0.08456145
 H           0.93627498        2.19419272       -0.61095402
 C          -0.71741859       -0.10899254       -0.08455524
 S          -1.79170771        0.99590704       -0.92026143
 C          -1.44176620       -1.11443183        0.51218177
 C          -3.18448565        0.06986689       -0.46803395
 C          -2.84369246       -1.01098636        0.29422114
 H          -3.56626016       -1.71782036        0.68022045
 H           4.19429620       -0.57452886        0.18632814
 H           3.53860725        1.89960515       -0.43610218
 H          -4.16508757        0.38206263       -0.79306987
 H          -0.97827964       -1.91794742        1.06982831
$end


$rem
         jobtype = opt
        exchange = b3lyp
           basis = 6-31++g**
  max_scf_cycles = 75
      mem_static = 100
       mem_total = 1500
$end


$opt
CONSTRAINT
tors 4 5 7 9 -160.0
ENDCONSTRAINT
$end

