$molecule
 0  1
 S           1.82267924       -1.19997629        0.28714109
 C           3.20006180       -0.17260711        0.06528466
 C           2.82980603        1.10216298       -0.25610036
 C           1.41909100        1.26345446       -0.34254814
 C           0.71738150        0.10901545       -0.08456145
 H           0.93627498        2.19419272       -0.61095402
 C          -0.71741859       -0.10899254       -0.08455524
 S          -1.37840052       -1.72421804       -0.25024931
 C          -1.73423106        0.81038563        0.02733242
 C          -3.00222539       -1.12965343       -0.14265658
 C          -3.03210824        0.22904661       -0.00679709
 H          -3.94854328        0.79812450        0.07693473
 H           4.19429620       -0.57452886        0.18632814
 H           3.53860725        1.89960515       -0.43610218
 H          -3.83047792       -1.82012346       -0.18674192
 H          -1.55381163        1.86983868        0.15553071
$end


$rem
         jobtype = opt
        exchange = b3lyp
           basis = 6-31++g**
  max_scf_cycles = 75
      mem_static = 100
       mem_total = 1500
$end


$opt
CONSTRAINT
tors 4 5 7 9 -20.0
ENDCONSTRAINT
$end

