$molecule
 0  1
 S           1.82267924       -1.19997629        0.28714109
 C           3.20006180       -0.17260711        0.06528466
 C           2.82980603        1.10216298       -0.25610036
 C           1.41909100        1.26345446       -0.34254814
 C           0.71738150        0.10901545       -0.08456145
 H           0.93627498        2.19419272       -0.61095402
 C          -0.71741859       -0.10899254       -0.08455524
 S          -1.76704763        0.83360309       -1.12527490
 C          -1.45935174       -0.99869004        0.65683281
 C          -3.17323329       -0.00419203       -0.55726814
 C          -2.85487849       -0.93736383        0.38785470
 H          -3.58886167       -1.56906510        0.87048917
 H           4.19429620       -0.57452886        0.18632814
 H           3.53860725        1.89960515       -0.43610218
 H          -4.14431621        0.24535313       -0.95654228
 H          -1.01238281       -1.69349230        1.35604333
$end


$rem
         jobtype = opt
        exchange = b3lyp
           basis = 6-31++g**
  max_scf_cycles = 75
      mem_static = 100
       mem_total = 1500
$end


$opt
CONSTRAINT
tors 4 5 7 9 -150.0
ENDCONSTRAINT
$end

