$molecule
 0  1
 S           1.82267924       -1.19997629        0.28714109
 C           3.20006180       -0.17260711        0.06528466
 C           2.82980603        1.10216298       -0.25610036
 C           1.41909100        1.26345446       -0.34254814
 C           0.71738150        0.10901545       -0.08456145
 H           0.93627498        2.19419272       -0.61095402
 C          -0.71741859       -0.10899254       -0.08455524
 S          -1.82833654        1.23700497        0.08114651
 C          -1.41525994       -1.28890056       -0.19643547
 C          -3.20227387        0.18695102       -0.02643323
 C          -2.82723615       -1.11930511       -0.16229422
 H          -3.53327929       -1.93490739       -0.24601901
 H           4.19429620       -0.57452886        0.18632814
 H           3.53860725        1.89960515       -0.43610218
 H          -4.19823526        0.60024430        0.01766002
 H          -0.92829611       -2.24694932       -0.32463665
$end


$rem
         jobtype = opt
        exchange = b3lyp
           basis = 6-31++g**
  max_scf_cycles = 75
      mem_static = 100
       mem_total = 1500
$end


$opt
CONSTRAINT
tors 4 5 7 9 160.0
ENDCONSTRAINT
$end

