$molecule
 0  1
 S           1.82267924       -1.19997629        0.28714109
 C           3.20006180       -0.17260711        0.06528466
 C           2.82980603        1.10216298       -0.25610036
 C           1.41909100        1.26345446       -0.34254814
 C           0.71738150        0.10901545       -0.08456145
 H           0.93627498        2.19419272       -0.61095402
 C          -0.71741859       -0.10899254       -0.08455524
 S          -1.82328469        1.20374179       -0.44105740
 C          -1.41912820       -1.26343144        0.17343142
 C          -3.19922829        0.16690023       -0.25767458
 C          -2.82941826       -1.10493701        0.07562280
 H          -3.53750269       -1.90709774        0.23645949
 H           4.19429620       -0.57452886        0.18632814
 H           3.53860725        1.89960515       -0.43610218
 H          -4.19239866        0.56181917       -0.40716131
 H          -0.93481970       -2.20399421        0.40193462
$end


$rem
         jobtype = opt
        exchange = b3lyp
           basis = 6-31++g**
  max_scf_cycles = 75
      mem_static = 100
       mem_total = 1500
$end


$opt
CONSTRAINT
tors 4 5 7 9 180.0
ENDCONSTRAINT
$end

