$molecule
 0  1
 S           1.82267924       -1.19997629        0.28714109
 C           3.20006180       -0.17260711        0.06528466
 C           2.82980603        1.10216298       -0.25610036
 C           1.41909100        1.26345446       -0.34254814
 C           0.71738150        0.10901545       -0.08456145
 H           0.93627498        2.19419272       -0.61095402
 C          -0.71741859       -0.10899254       -0.08455524
 S          -1.38345237       -1.69095486        0.27195461
 C          -1.73036281        0.78491651       -0.34253447
 C          -3.00527096       -1.10960263        0.08858478
 C          -3.02992614        0.21467851       -0.24471410
 H          -3.94431988        0.77031485       -0.40554376
 H           4.19429620       -0.57452886        0.18632814
 H           3.53860725        1.89960515       -0.43610218
 H          -3.83631452       -1.78169832        0.23807941
 H          -1.54728804        1.82688357       -0.57104055
$end


$rem
         jobtype = opt
        exchange = b3lyp
           basis = 6-31++g**
  max_scf_cycles = 75
      mem_static = 100
       mem_total = 1500
$end


$opt
CONSTRAINT
tors 4 5 7 9 0.0
ENDCONSTRAINT
$end

