$molecule
 0  1
 S           1.82267924       -1.19997629        0.28714109
 C           3.20006180       -0.17260711        0.06528466
 C           2.82980603        1.10216298       -0.25610036
 C           1.41909100        1.26345446       -0.34254814
 C           0.71738150        0.10901545       -0.08456145
 H           0.93627498        2.19419272       -0.61095402
 C          -0.71741859       -0.10899254       -0.08455524
 S          -1.37749492       -1.73017070        0.01232441
 C          -1.73472742        0.81364706       -0.15872793
 C          -3.00222863       -1.12962874       -0.02614873
 C          -3.03258060        0.23215198       -0.12639132
 H          -3.94960206        0.80508588       -0.16553498
 H           4.19429620       -0.57452886        0.18632814
 H           3.53860725        1.89960515       -0.43610218
 H          -3.83060461       -1.81928354        0.02736890
 H          -1.55532431        1.87978385       -0.20965551
$end


$rem
         jobtype = opt
        exchange = b3lyp
           basis = 6-31++g**
  max_scf_cycles = 75
      mem_static = 100
       mem_total = 1500
$end


$opt
CONSTRAINT
tors 4 5 7 9 -10.0
ENDCONSTRAINT
$end

