$molecule
 0  1
 S           1.82267924       -1.19997629        0.28714109
 C           3.20006180       -0.17260711        0.06528466
 C           2.82980603        1.10216298       -0.25610036
 C           1.41909100        1.26345446       -0.34254814
 C           0.71738150        0.10901545       -0.08456145
 H           0.93627498        2.19419272       -0.61095402
 C          -0.71741859       -0.10899254       -0.08455524
 S          -1.65691630        0.10885505        1.37940909
 C          -1.53599595       -0.49431368       -1.12048061
 C          -3.12825426       -0.30018565        0.56103216
 C          -2.90561468       -0.60348066       -0.75192645
 H          -3.69269648       -0.88575145       -1.43861363
 H           4.19429620       -0.57452886        0.18632814
 H           3.53860725        1.89960515       -0.43610218
 H          -4.06281527       -0.29097931        1.10066685
 H          -1.16798283       -0.66952392       -2.12312435
$end


$rem
         jobtype = opt
        exchange = b3lyp
           basis = 6-31++g**
  max_scf_cycles = 75
      mem_static = 100
       mem_total = 1500
$end


$opt
CONSTRAINT
tors 4 5 7 9 90.0
ENDCONSTRAINT
$end

