$molecule
 0  1
 S           1.82267924       -1.19997629        0.28714109
 C           3.20006180       -0.17260711        0.06528466
 C           2.82980603        1.10216298       -0.25610036
 C           1.41909100        1.26345446       -0.34254814
 C           0.71738150        0.10901545       -0.08456145
 H           0.93627498        2.19419272       -0.61095402
 C          -0.71741859       -0.10899254       -0.08455524
 S          -1.72890273        0.58262129        1.16918923
 C          -1.48510859       -0.82922004       -0.96977108
 C          -3.15985464       -0.09221335        0.46288526
 C          -2.87277666       -0.81959845       -0.65689763
 H          -3.62603435       -1.32447682       -1.24716411
 H           4.19429620       -0.57452886        0.18632814
 H           3.53860725        1.89960515       -0.43610218
 H          -4.12078683        0.09055013        0.91884741
 H          -1.06765130       -1.32983866       -1.83379490
$end


$rem
         jobtype = opt
        exchange = b3lyp
           basis = 6-31++g**
  max_scf_cycles = 75
      mem_static = 100
       mem_total = 1500
$end


$opt
CONSTRAINT
tors 4 5 7 9 110.0
ENDCONSTRAINT
$end

