$molecule
 0  1
 S           1.82267924       -1.19997629        0.28714109
 C           3.20006180       -0.17260711        0.06528466
 C           2.82980603        1.10216298       -0.25610036
 C           1.41909100        1.26345446       -0.34254814
 C           0.71738150        0.10901545       -0.08456145
 H           0.93627498        2.19419272       -0.61095402
 C          -0.71741859       -0.10899254       -0.08455524
 S          -1.42098918       -1.44394535       -0.97685255
 C          -1.70445825        0.61445327        0.54318796
 C          -3.01999224       -1.01273173       -0.46780001
 C          -3.01254331        0.10029122        0.32374341
 H          -3.90859449        0.53522425        0.74640094
 H           4.19429620       -0.57452886        0.18632814
 H           3.53860725        1.89960515       -0.43610218
 H          -3.86279185       -1.60746932       -0.78508643
 H          -1.49387306        1.47538715        1.16437512
$end


$rem
         jobtype = opt
        exchange = b3lyp
           basis = 6-31++g**
  max_scf_cycles = 75
      mem_static = 100
       mem_total = 1500
$end


$opt
CONSTRAINT
tors 4 5 7 9 -50.0
ENDCONSTRAINT
$end

