$molecule
 0  1
 S           1.82267924       -1.19997629        0.28714109
 C           3.20006180       -0.17260711        0.06528466
 C           2.82980603        1.10216298       -0.25610036
 C           1.41909100        1.26345446       -0.34254814
 C           0.71738150        0.10901545       -0.08456145
 H           0.93627498        2.19419272       -0.61095402
 C          -0.71741859       -0.10899254       -0.08455524
 S          -1.44703672       -1.27252139       -1.17412536
 C          -1.68611225        0.49371469        0.68359791
 C          -3.03123962       -0.93871063       -0.55706620
 C          -3.00063359        0.02191097        0.41333885
 H          -3.88437083        0.37580354        0.92761736
 H           4.19429620       -0.57452886        0.18632814
 H           3.53860725        1.89960515       -0.43610218
 H          -3.88336910       -1.47204664       -0.94965084
 H          -1.45745233        1.23569515        1.43765785
$end


$rem
         jobtype = opt
        exchange = b3lyp
           basis = 6-31++g**
  max_scf_cycles = 75
      mem_static = 100
       mem_total = 1500
$end


$opt
CONSTRAINT
tors 4 5 7 9 -60.0
ENDCONSTRAINT
$end

